0000000000000000
0000000000000000
0000000000000000
0000011111100000
0000000000110000
0000000000011000
0000000000011000
0000000000011000
0000011111111110
0000000000000000
0000000000000000
0000000000000000
0000000000000000
0000000000000000
0000000000000000
0000000000000000